18,8	0,0	5,3	19,7	0,0	0,0	0,0	0,0	0,0	9,5
5,6	9,9	0,0	16,6	12,2	0,0	0,0	15,3	0,0	0,0
0,0	0,0	18,2	0,0	10,6	18,8	0,0	0,0	10,4	0,0
10,1	0,0	9,3	0,0	0,0	0,0	10,1	0,0	0,0	0,0
0,0	10,2	0,0	5,1	8,3	0,0	0,0	13,5	0,0	0,0
0,0	13,9	10,5	0,0	12,7	9,9	0,0	0,0	10,3	0,0
0,0	16,6	0,0	6,0	0,0	0,0	12,3	0,0	0,0	8,8
8,5	0,0	6,3	0,0	0,0	0,0	0,0	0,0	0,0	14,8
0,0	18,5	0,0	14,9	10,5	0,0	0,0	8,3	0,0	0,0
0,0	0,0	14,6	0,0	0,0	17,1	15,0	0,0	0,0	16,8
									
4,0	4,1	3,4	2,6	3,1	4,1	3,9	3,4	3,3	3,8
